
Gurobi 10.0.1 (linux64) logging started Wed May 31 14:00:19 2023

Set parameter LogFile to value "logFiles/A-2L-C/A-2L-6U-15F-15V-240D-basic.log"
Gurobi Optimizer version 10.0.1 build v10.0.1rc0 (linux64)

CPU model: Intel(R) Xeon(R) Gold 5115 CPU @ 2.40GHz, instruction set [SSE2|AVX|AVX2|AVX512]
Thread count: 20 physical cores, 40 logical processors, using up to 20 threads

Optimize a model with 83361 rows, 940697 columns and 5811247 nonzeros
Model fingerprint: 0xcebf9d83
Variable types: 2188 continuous, 938509 integer (938509 binary)
Coefficient statistics:
  Matrix range     [1e+00, 2e+05]
  Objective range  [4e+01, 3e+07]
  Bounds range     [1e+00, 1e+00]
  RHS range        [1e+00, 5e+06]
Presolve removed 51190 rows and 40832 columns (presolve time = 5s) ...
Presolve removed 51190 rows and 40832 columns (presolve time = 10s) ...
Presolve removed 51190 rows and 40832 columns (presolve time = 15s) ...
Presolve removed 51110 rows and 40752 columns
Presolve time: 17.63s
Presolved: 32251 rows, 899945 columns, 4545084 nonzeros
Variable types: 2219 continuous, 897726 integer (897689 binary)
Deterministic concurrent LP optimizer: primal simplex, dual simplex, and barrier
Showing barrier log only...

Root barrier log...

Ordering time: 2.39s

Barrier statistics:
 AA' NZ     : 2.272e+06
 Factor NZ  : 2.202e+07 (roughly 600 MB of memory)
 Factor Ops : 5.951e+10 (less than 1 second per iteration)
 Threads    : 17

                  Objective                Residual
Iter       Primal          Dual         Primal    Dual     Compl     Time
   0  -1.17191003e+17  3.90957383e+12  1.27e+10 5.95e+04  3.26e+11    29s
   1  -2.52679361e+16  6.70802397e+12  2.75e+09 4.61e+05  7.13e+10    29s
   2  -3.85024237e+15  7.40791277e+12  4.22e+08 1.75e-09  1.10e+10    30s
   3  -5.06346207e+13  4.95066315e+12  5.54e+06 1.51e-09  1.48e+08    31s
   4  -2.86138281e+13  1.09866953e+12  3.13e+06 1.63e-09  8.46e+07    31s
   5  -7.12784980e+12  1.01214825e+12  7.79e+05 1.40e-09  2.15e+07    32s
   6  -1.57584962e+12  8.06754528e+11  1.72e+05 1.16e-09  5.08e+06    32s
   7  -1.04268871e+12  6.11198230e+11  1.14e+05 1.05e-09  3.36e+06    33s
   8  -2.17673197e+11  4.60113449e+11  2.39e+04 1.16e-09  8.68e+05    34s
   9  -1.80741091e+11  2.85251835e+11  1.99e+04 2.42e-08  6.23e+05    34s
  10  -3.66202696e+10  1.58923573e+11  4.20e+03 1.96e-08  1.76e+05    35s
  11  -9.95989185e+09  6.27745300e+10  1.30e+03 7.68e-09  5.78e+04    35s
  12  -2.55984642e+09  2.99511702e+10  4.95e+02 6.17e-09  2.41e+04    36s
  13   2.14944040e+08  2.03969048e+10  2.04e+02 4.54e-09  1.36e+04    36s
  14   8.60979016e+08  1.71998205e+10  1.36e+02 4.19e-09  1.07e+04    37s
  15   1.35533060e+09  1.26929168e+10  8.41e+01 7.63e-09  7.27e+03    38s
  16   1.50301463e+09  9.57399859e+09  6.88e+01 1.12e-08  5.28e+03    39s
  17   1.63772288e+09  6.90535911e+09  5.50e+01 1.71e-08  3.57e+03    39s
  18   1.75001085e+09  5.85698694e+09  4.40e+01 2.02e-08  2.79e+03    40s
  19   1.85789564e+09  4.13400449e+09  3.33e+01 1.93e-08  1.65e+03    41s
  20   1.91668400e+09  3.61023140e+09  2.84e+01 2.53e-08  1.26e+03    42s
  21   2.00765395e+09  3.30974901e+09  2.02e+01 2.13e-08  9.49e+02    42s
  22   2.05413492e+09  3.07186075e+09  1.64e+01 2.70e-08  7.41e+02    43s
  23   2.06810572e+09  2.95024480e+09  1.50e+01 1.96e-08  6.45e+02    44s
  24   2.12655595e+09  2.86982470e+09  9.77e+00 3.45e-08  5.10e+02    45s
  25   2.15328796e+09  2.80496874e+09  7.44e+00 4.05e-08  4.33e+02    45s
  26   2.18459614e+09  2.60614447e+09  4.82e+00 2.50e-08  2.72e+02    46s
  27   2.18568042e+09  2.57428505e+09  4.72e+00 2.62e-08  2.51e+02    47s
  28   2.19253408e+09  2.52653325e+09  4.15e+00 2.22e-08  2.14e+02    48s
  29   2.21574344e+09  2.45648040e+09  2.54e+00 2.61e-08  1.48e+02    48s
  30   2.23619486e+09  2.41033471e+09  1.03e+00 2.72e-08  1.01e+02    49s
  31   2.24417686e+09  2.34613263e+09  7.08e-01 3.86e-08  5.84e+01    50s
  32   2.24676354e+09  2.33011557e+09  6.09e-01 3.61e-08  4.75e+01    51s
  33   2.24890827e+09  2.32173904e+09  5.28e-01 3.57e-08  4.13e+01    51s
  34   2.25079538e+09  2.31728344e+09  4.70e-01 5.19e-08  3.76e+01    52s
  35   2.25627421e+09  2.30363789e+09  3.23e-01 2.94e-08  2.66e+01    52s
  36   2.25867384e+09  2.29604074e+09  2.70e-01 3.24e-08  2.09e+01    53s
  37   2.26275761e+09  2.28946702e+09  1.92e-01 3.31e-08  1.49e+01    54s
  38   2.26480966e+09  2.28706104e+09  1.57e-01 2.93e-08  1.24e+01    55s
  39   2.26776102e+09  2.28448816e+09  1.08e-01 4.10e-08  9.32e+00    55s
  40   2.26882091e+09  2.28299618e+09  8.95e-02 4.28e-08  7.89e+00    56s
  41   2.27033523e+09  2.28159498e+09  6.67e-02 3.17e-08  6.26e+00    57s
  42   2.27121861e+09  2.28016194e+09  5.45e-02 3.14e-08  4.97e+00    58s
  43   2.27218382e+09  2.27949302e+09  4.22e-02 3.31e-08  4.06e+00    58s
  44   2.27282211e+09  2.27866692e+09  3.43e-02 2.60e-08  3.25e+00    59s
  45   2.27364425e+09  2.27808543e+09  2.49e-02 3.42e-08  2.47e+00    60s

Barrier performed 45 iterations in 60.04 seconds (58.28 work units)
Time limit reached



Root relaxation: time limit, 0 iterations, 38.72 seconds (32.27 work units)

Explored 1 nodes (0 simplex iterations) in 60.12 seconds (59.02 work units)
Thread count was 20 (of 40 available processors)

Solution count 0

Time limit reached
Best objective -, best bound 4.844745356686e+12, gap -
IIS computation: initial model status unknown, solving to determine model status
Presolve removed 49420 rows and 40832 columns (presolve time = 5s) ...
Presolve removed 51190 rows and 40832 columns (presolve time = 10s) ...
Presolve removed 51190 rows and 40832 columns (presolve time = 15s) ...
Presolve removed 51190 rows and 40832 columns (presolve time = 20s) ...
Presolve removed 51110 rows and 40752 columns
Presolve time: 21.06s
Presolved: 32251 rows, 899945 columns, 4545084 nonzeros
Variable types: 2219 continuous, 897726 integer (897689 binary)
Deterministic concurrent LP optimizer: primal simplex, dual simplex, and barrier
Showing barrier log only...

Root barrier log...

Ordering time: 2.39s

Barrier statistics:
 AA' NZ     : 2.272e+06
 Factor NZ  : 2.202e+07 (roughly 600 MB of memory)
 Factor Ops : 5.951e+10 (less than 1 second per iteration)
 Threads    : 18

                  Objective                Residual
Iter       Primal          Dual         Primal    Dual     Compl     Time
   0  -0.00000000e+00  3.10253400e+05  1.27e+10 0.00e+00  2.48e+04    34s
   1  -0.00000000e+00  5.13154624e+05  2.75e+09 3.37e-02  5.43e+03    34s
   2  -0.00000000e+00  5.55053248e+05  1.64e+08 1.11e-16  3.26e+02    35s
   3  -0.00000000e+00  3.26315526e+05  3.89e+06 1.11e-16  7.92e+00    35s
   4  -0.00000000e+00  5.85151239e+04  6.03e+05 8.66e-17  9.47e-01    36s
   5  -0.00000000e+00  2.84906180e+04  1.35e+05 4.34e-17  1.52e-01    37s
   6  -0.00000000e+00  2.01642661e+04  4.71e+04 3.41e-08  5.13e-02    38s
   7  -0.00000000e+00  8.52985315e+03  1.73e+04 1.44e-08  1.37e-02    38s
   8  -0.00000000e+00  3.53953757e+03  8.97e+03 5.55e-09  5.06e-03    39s
   9  -0.00000000e+00  1.41592381e+03  1.89e+03 5.65e-15  1.26e-03    40s
  10  -0.00000000e+00  6.70123380e+02  7.29e+02 3.39e-15  5.25e-04    40s
  11  -0.00000000e+00  3.66698926e+02  3.83e+02 2.14e-09  2.79e-04    41s
  12  -0.00000000e+00  2.54128005e+02  1.81e+02 2.51e-09  1.76e-04    42s
  13  -0.00000000e+00  1.18297714e+02  1.33e+02 8.69e-09  9.13e-05    42s
  14  -0.00000000e+00  7.90940091e+01  8.36e+01 1.30e-08  5.99e-05    43s
  15  -0.00000000e+00  6.13174461e+01  4.33e+01 1.02e-08  4.25e-05    43s
  16  -0.00000000e+00  3.24712015e+01  3.24e+01 1.31e-08  2.43e-05    44s
  17  -0.00000000e+00  1.98831377e+01  2.65e+01 2.08e-08  1.60e-05    45s
  18  -0.00000000e+00  1.32781852e+01  2.41e+01 2.88e-08  1.18e-05    45s
  19  -0.00000000e+00  1.14632018e+01  1.95e+01 3.53e-08  9.85e-06    46s
  20  -0.00000000e+00  6.39784640e+00  1.13e+01 6.24e-08  5.40e-06    47s
  21  -0.00000000e+00  2.44427684e+00  2.26e+00 1.06e-07  1.70e-06    47s
  22  -0.00000000e+00  6.56909791e-01  4.01e-01 4.98e-08  4.41e-07    48s
  23  -0.00000000e+00  2.96037566e-03  1.03e-03 2.35e-10  2.00e-09    49s
  24  -0.00000000e+00  5.65786780e-07  2.68e-06 4.41e-14  3.84e-13    50s
  25  -0.00000000e+00  6.76658686e-10  5.87e-09 2.24e-16  8.42e-16    51s

Barrier solved model in 25 iterations and 51.02 seconds (50.73 work units)
Optimal objective -0.00000000e+00

  Building initial crossover basis                                56s
  Building initial crossover basis                                60s


Root relaxation: time limit, 167768 iterations, 34.91 seconds (31.66 work units)

    Nodes    |    Current Node    |     Objective Bounds      |     Work
 Expl Unexpl |  Obj  Depth IntInf | Incumbent    BestBd   Gap | It/Node Time

     0     0          -    0               -   -0.00000      -     -   60s

Explored 1 nodes (167768 simplex iterations) in 60.50 seconds (58.50 work units)
Thread count was 20 (of 40 available processors)

Solution count 0

Time limit reached
Best objective -, best bound -0.000000000000e+00, gap -
IIS runtime: 60.54 seconds (58.50 work units)
